489
0
0
0
8343
15255
4819
385
0
16645
3342
0
3000
109797
0
2355
29567
8844
13627
925
1628
0
8624
10798
371
19471
35
45801
15873
791
586
0
29324
15419
4940
235
0
12100
2018
0
7816
4111
0
368660
10506
24964
0
11796
409
15880
134
8765
28724
29277
29638
49516
220
424
0
16293
132082
2948
8687
850
147419
834
55987
1447
0
8481
46456
662
61272
0
25813
2555
3355
0
914
244344
0
25406
1385
0
15315
8046
7133
746905
2487
19590
341
60094
3498
0
17167
45520
5710
19423
2297
29112
